feasible solution found by trivial heuristic after 1.0 seconds, objective value 0.000000e+00
presolving:
(round 1, fast)       183538 del vars, 13481 del conss, 0 add conss, 13249 chg bounds, 8972 chg sides, 1423 chg coeffs, 0 upgd conss, 0 impls, 4139 clqs
(round 2, fast)       213368 del vars, 14670 del conss, 0 add conss, 65614 chg bounds, 8972 chg sides, 1423 chg coeffs, 0 upgd conss, 0 impls, 4139 clqs
(round 3, fast)       213368 del vars, 15859 del conss, 0 add conss, 65614 chg bounds, 8972 chg sides, 2457 chg coeffs, 0 upgd conss, 0 impls, 4139 clqs
(round 4, fast)       214557 del vars, 17995 del conss, 0 add conss, 65614 chg bounds, 8972 chg sides, 2457 chg coeffs, 0 upgd conss, 0 impls, 2004 clqs
(round 5, fast)       214557 del vars, 17995 del conss, 0 add conss, 66194 chg bounds, 8972 chg sides, 2457 chg coeffs, 0 upgd conss, 0 impls, 2004 clqs
   (1.7s) running MILP presolver
   (2.0s) MILP presolver (2 rounds): 0 aggregations, 0 fixings, 0 bound changes
(round 6, exhaustive) 214557 del vars, 19152 del conss, 0 add conss, 66194 chg bounds, 9809 chg sides, 2457 chg coeffs, 0 upgd conss, 0 impls, 2004 clqs
   (2.1s) running MILP presolver
   (2.3s) MILP presolver found nothing
(round 7, exhaustive) 214557 del vars, 19241 del conss, 0 add conss, 66283 chg bounds, 9898 chg sides, 2457 chg coeffs, 0 upgd conss, 0 impls, 2004 clqs
(round 8, fast)       214646 del vars, 19241 del conss, 0 add conss, 66283 chg bounds, 9898 chg sides, 2457 chg coeffs, 0 upgd conss, 0 impls, 2004 clqs
(round 9, exhaustive) 214646 del vars, 19279 del conss, 0 add conss, 66321 chg bounds, 9936 chg sides, 2457 chg coeffs, 0 upgd conss, 0 impls, 2004 clqs
(round 10, fast)       214684 del vars, 19279 del conss, 0 add conss, 66321 chg bounds, 9936 chg sides, 2457 chg coeffs, 0 upgd conss, 0 impls, 2004 clqs
(round 11, exhaustive) 214684 del vars, 19291 del conss, 0 add conss, 66333 chg bounds, 9948 chg sides, 2457 chg coeffs, 0 upgd conss, 0 impls, 2004 clqs
(round 12, exhaustive) 214696 del vars, 19295 del conss, 0 add conss, 66337 chg bounds, 9952 chg sides, 2457 chg coeffs, 0 upgd conss, 0 impls, 2004 clqs
(round 13, exhaustive) 214700 del vars, 19297 del conss, 0 add conss, 66339 chg bounds, 9954 chg sides, 2457 chg coeffs, 0 upgd conss, 0 impls, 2004 clqs
(round 14, exhaustive) 214702 del vars, 19298 del conss, 0 add conss, 66340 chg bounds, 9955 chg sides, 2457 chg coeffs, 1349 upgd conss, 0 impls, 2004 clqs
   (4.0s) probing: 1000/1911 (52.3%) - 0 fixings, 0 aggregations, 24518 implications, 0 bound changes
   (4.0s) probing: 1001/1911 (52.4%) - 0 fixings, 0 aggregations, 24567 implications, 0 bound changes
   (4.0s) probing aborted: 1000/1000 successive useless probings
   (4.0s) symmetry computation started: requiring (bin +, int -, cont +), (fixed: bin -, int +, cont -)
   (4.0s) no symmetry present
   (4.0s) symmetry computation started: requiring (bin +, int +, cont +), (fixed: bin -, int -, cont -)
   (4.0s) no symmetry present
presolving (15 rounds: 15 fast, 8 medium, 8 exhaustive):
 214703 deleted vars, 19298 deleted constraints, 0 added constraints, 66340 tightened bounds, 0 added holes, 9955 changed sides, 2457 changed coefficients
 24195 implications, 2376 cliques
presolved problem has 28694 variables (1729 bin, 467 int, 434 impl, 26064 cont) and 3797 constraints
   1167 constraints of type <setppc>
   2448 constraints of type <linear>
    182 constraints of type <logicor>
Presolving Time: 3.50
transformed 1/1 original solutions to the transformed problem space

 time | node  | left  |LP iter|LP it/n|mem/heur|mdpt |vars |cons |rows |cuts |sepa|confs|strbr|  dualbound   | primalbound  |  gap   | compl. 
 16.7s|     1 |     0 | 15121 |     - |   740M |   0 |  28k|3801 |3797 |   0 |  0 |   4 |   0 | 2.434002e+06 | 0.000000e+00 |    Inf | unknown
 18.0s|     1 |     0 | 16175 |     - |   744M |   0 |  28k|3801 |3799 |   2 |  1 |   4 |   0 | 2.434001e+06 | 0.000000e+00 |    Inf | unknown
 21.3s|     1 |     0 | 19314 |     - |   744M |   0 |  28k|3801 |3802 |   5 |  2 |   4 |   0 | 1.775281e+06 | 0.000000e+00 |    Inf | unknown
 22.8s|     1 |     0 | 20960 |     - |   745M |   0 |  28k|3803 |3803 |   6 |  3 |   6 |   0 | 1.623821e+06 | 0.000000e+00 |    Inf | unknown
 24.3s|     1 |     0 | 22319 |     - |   745M |   0 |  28k|3803 |3804 |   7 |  4 |   6 |   0 | 1.623820e+06 | 0.000000e+00 |    Inf | unknown
r24.4s|     1 |     0 | 22319 |     - |simplero|   0 |  28k|3803 |3804 |   7 |  4 |   6 |   0 | 1.623820e+06 | 1.623685e+06 |   0.01%| unknown
 25.2s|     1 |     0 | 23240 |     - |   746M |   0 |  28k|3803 |3805 |   8 |  5 |   6 |   0 | 1.623816e+06 | 1.623685e+06 |   0.01%| unknown
r25.6s|     1 |     0 | 23513 |     - |randroun|   0 |  28k|3803 |2222 |   0 |  5 |   6 |   0 | 1.623816e+06 | 1.623712e+06 |   0.01%| unknown
 25.7s|     1 |     0 | 23513 |     - |   746M |   0 |  28k|3803 |2222 |   8 |  5 |   6 |   0 | 1.623815e+06 | 1.623712e+06 |   0.01%| unknown
 25.7s|     1 |     0 | 23513 |     - |   746M |   0 |  28k|3803 |2215 |   8 |  5 |   6 |   0 | 1.623815e+06 | 1.623712e+06 |   0.01%| unknown
 25.7s|     1 |     0 | 23513 |     - |   746M |   0 |  28k|3803 |2214 |   8 |  5 |   6 |   0 | 1.623815e+06 | 1.623712e+06 |   0.01%| unknown
 25.9s|     1 |     0 | 23558 |     - |   746M |   0 |  28k|2646 |2215 |   9 |  6 |   6 |   0 | 1.623809e+06 | 1.623712e+06 |   0.01%| unknown
 26.0s|     1 |     0 | 23558 |     - |   746M |   0 |  28k|2646 |2215 |   9 |  6 |   6 |   0 | 1.623809e+06 | 1.623712e+06 |   0.01%| unknown
 26.0s|     1 |     0 | 23564 |     - |   747M |   0 |  28k|2646 |2217 |  11 |  7 |   6 |   0 | 1.623806e+06 | 1.623712e+06 |   0.01%| unknown
 26.1s|     1 |     0 | 23564 |     - |   748M |   0 |  28k|2646 |2217 |  11 |  7 |   6 |   0 | 1.623806e+06 | 1.623712e+06 |   0.01%| unknown
 time | node  | left  |LP iter|LP it/n|mem/heur|mdpt |vars |cons |rows |cuts |sepa|confs|strbr|  dualbound   | primalbound  |  gap   | compl. 
 26.2s|     1 |     0 | 23575 |     - |   748M |   0 |  28k|2646 |2220 |  14 |  8 |   6 |   0 | 1.623804e+06 | 1.623712e+06 |   0.01%| unknown
 26.3s|     1 |     0 | 23575 |     - |   748M |   0 |  28k|2646 |2220 |  14 |  8 |   6 |   0 | 1.623804e+06 | 1.623712e+06 |   0.01%| unknown
 26.4s|     1 |     0 | 23595 |     - |   748M |   0 |  28k|2646 |2222 |  16 |  9 |   6 |   0 | 1.623801e+06 | 1.623712e+06 |   0.01%| unknown
 26.5s|     1 |     0 | 23595 |     - |   749M |   0 |  28k|2646 |2222 |  16 |  9 |   6 |   0 | 1.623801e+06 | 1.623712e+06 |   0.01%| unknown
 26.6s|     1 |     0 | 23598 |     - |   749M |   0 |  28k|2646 |2226 |  20 | 10 |   6 |   0 | 1.623799e+06 | 1.623712e+06 |   0.01%| unknown
 26.7s|     1 |     0 | 23598 |     - |   749M |   0 |  28k|2646 |2226 |  20 | 10 |   6 |   0 | 1.623799e+06 | 1.623712e+06 |   0.01%| unknown
 26.8s|     1 |     0 | 23619 |     - |   750M |   0 |  28k|2646 |2227 |  21 | 11 |   6 |   0 | 1.623798e+06 | 1.623712e+06 |   0.01%| unknown
 26.9s|     1 |     0 | 23619 |     - |   751M |   0 |  28k|2646 |2227 |  21 | 11 |   6 |   0 | 1.623798e+06 | 1.623712e+06 |   0.01%| unknown
 27.0s|     1 |     0 | 23631 |     - |   751M |   0 |  28k|2646 |2230 |  24 | 12 |   6 |   0 | 1.623795e+06 | 1.623712e+06 |   0.01%| unknown
 27.1s|     1 |     0 | 23631 |     - |   751M |   0 |  28k|2646 |2230 |  24 | 12 |   6 |   0 | 1.623795e+06 | 1.623712e+06 |   0.01%| unknown
 27.2s|     1 |     0 | 23651 |     - |   752M |   0 |  28k|2646 |2231 |  25 | 13 |   6 |   0 | 1.623793e+06 | 1.623712e+06 |   0.00%| unknown
 27.3s|     1 |     0 | 23651 |     - |   752M |   0 |  28k|2646 |2231 |  25 | 13 |   6 |   0 | 1.623793e+06 | 1.623712e+06 |   0.00%| unknown
 27.4s|     1 |     0 | 23667 |     - |   752M |   0 |  28k|2646 |2233 |  27 | 14 |   6 |   0 | 1.623789e+06 | 1.623712e+06 |   0.00%| unknown
 27.5s|     1 |     0 | 23667 |     - |   753M |   0 |  28k|2646 |2233 |  27 | 14 |   6 |   0 | 1.623789e+06 | 1.623712e+06 |   0.00%| unknown
 27.6s|     1 |     0 | 23698 |     - |   753M |   0 |  28k|2646 |2236 |  30 | 15 |   6 |   0 | 1.623784e+06 | 1.623712e+06 |   0.00%| unknown
 time | node  | left  |LP iter|LP it/n|mem/heur|mdpt |vars |cons |rows |cuts |sepa|confs|strbr|  dualbound   | primalbound  |  gap   | compl. 
 27.7s|     1 |     0 | 23698 |     - |   754M |   0 |  28k|2646 |2236 |  30 | 15 |   6 |   0 | 1.623784e+06 | 1.623712e+06 |   0.00%| unknown
 27.8s|     1 |     0 | 23706 |     - |   754M |   0 |  28k|2646 |2238 |  32 | 16 |   6 |   0 | 1.623780e+06 | 1.623712e+06 |   0.00%| unknown
 27.9s|     1 |     0 | 23706 |     - |   754M |   0 |  28k|2646 |2238 |  32 | 16 |   6 |   0 | 1.623780e+06 | 1.623712e+06 |   0.00%| unknown
 28.0s|     1 |     0 | 23733 |     - |   755M |   0 |  28k|2646 |2240 |  34 | 17 |   6 |   0 | 1.623776e+06 | 1.623712e+06 |   0.00%| unknown
 28.1s|     1 |     0 | 23733 |     - |   756M |   0 |  28k|2646 |2240 |  34 | 17 |   6 |   0 | 1.623776e+06 | 1.623712e+06 |   0.00%| unknown
 28.2s|     1 |     0 | 23733 |     - |   756M |   0 |  28k| 284 |2240 |  34 | 17 |   6 |   0 | 1.623776e+06 | 1.623712e+06 |   0.00%| unknown
 28.3s|     1 |     0 | 23737 |     - |   756M |   0 |  28k| 284 |2243 |  37 | 18 |   6 |   0 | 1.623771e+06 | 1.623712e+06 |   0.00%| unknown
 28.3s|     1 |     0 | 23739 |     - |   756M |   0 |  28k| 284 |2245 |  39 | 19 |   6 |   0 | 1.623760e+06 | 1.623712e+06 |   0.00%| unknown
 28.3s|     1 |     0 | 23739 |     - |   756M |   0 |  28k| 284 |2077 |  39 | 19 |   6 |   0 | 1.623760e+06 | 1.623712e+06 |   0.00%| unknown
 28.4s|     1 |     0 | 23740 |     - |   757M |   0 |  28k| 284 |2078 |  40 | 20 |   6 |   0 | 1.623756e+06 | 1.623712e+06 |   0.00%| unknown
 28.5s|     1 |     0 | 23742 |     - |   758M |   0 |  28k| 284 |2077 |  42 | 21 |   6 |   0 | 1.623740e+06 | 1.623712e+06 |   0.00%| unknown
 28.5s|     1 |     0 | 23742 |     - |   758M |   0 |  28k| 284 |2077 |  42 | 21 |   6 |   0 | 1.623740e+06 | 1.623712e+06 |   0.00%| unknown
 28.5s|     1 |     0 | 23746 |     - |   758M |   0 |  28k| 284 |2080 |  45 | 22 |   6 |   0 | 1.623726e+06 | 1.623712e+06 |   0.00%| unknown
 28.5s|     1 |     0 | 23746 |     - |   758M |   0 |  28k| 284 |2080 |  45 | 22 |   6 |   0 | 1.623726e+06 | 1.623712e+06 |   0.00%| unknown
 28.6s|     1 |     0 | 23749 |     - |   758M |   0 |  28k| 284 |2083 |  48 | 23 |   6 |   0 | 1.623716e+06 | 1.623712e+06 |   0.00%| unknown
 time | node  | left  |LP iter|LP it/n|mem/heur|mdpt |vars |cons |rows |cuts |sepa|confs|strbr|  dualbound   | primalbound  |  gap   | compl. 
 28.6s|     1 |     0 | 23749 |     - |   759M |   0 |  28k| 284 |2083 |  48 | 23 |   6 |   0 | 1.623716e+06 | 1.623712e+06 |   0.00%| unknown
 28.6s|     1 |     0 | 23751 |     - |   759M |   0 |  28k| 284 |2084 |  49 | 24 |   6 |   0 | 1.623712e+06 | 1.623712e+06 |   0.00%| unknown
 28.7s|     1 |     0 | 23751 |     - |   759M |   0 |  28k| 284 |2084 |  49 | 24 |   6 |   0 | 1.623712e+06 | 1.623712e+06 |   0.00%| unknown
 28.7s|     1 |     0 | 23752 |     - |   759M |   0 |  28k| 284 |2085 |  50 | 25 |   6 |   0 | 1.623712e+06 | 1.623712e+06 |   0.00%| unknown
 28.7s|     1 |     0 | 23752 |     - |   759M |   0 |  28k| 284 |2085 |  50 | 25 |   6 |   0 | 1.623712e+06 | 1.623712e+06 |   0.00%| unknown

SCIP Status        : problem is solved [optimal solution found]
Solving Time (sec) : 28.69
Solving Nodes      : 1
Primal Bound       : +1.62371220241499e+06 (21 solutions)
Dual Bound         : +1.62371220241499e+06
Gap                : 0.00 %
Solve Status: optimal
Solve Time: 28.78 seconds
